30 60
28
5 7 12 21
5 14 3 25
8 14 11 46
8 4 17 21
13 21 17 25
11 7 0 0
11 14 19 46
5 14 9 7
5 4 14 0
3 18 0 25
3 21 8 34
11 17 14 4
11 4 19 0
4 7 13 34
4 5 13 41
7 6 10 28
5 18 25 4
5 3 25 22
3 7 11 0
3 5 8 55
4 18 5 7
4 3 8 25
2 12 11 34
2 6 8 28
5 18 0 7
5 21 3 39
3 17 0 43
3 4 9 21
